;; sequence(s): A293402
;; terms: 0 2 6 15 26 40 58 79 104 131 162 196 233 273 317 364 414 468 524 584
;; small program: loop((((2 + y) * y) div (2 + x)) + y, 1 + (x * x), 0) - 2
;; fast program: loop((loop(((y * y) - 1) div (x + y), 2 + x, 0) - 1) + x, 1, x * x)
(set-logic UFNIA)
(define-fun divf ((a Int) (b Int)) Int (ite (< 0 b) (div a b) (div (- a) (- b))))
(declare-fun f0 (Int Int) Int)
(declare-fun g0 (Int) Int)
(declare-fun h0 () Int)
(declare-fun u0 (Int Int) Int)
(declare-fun v0 (Int) Int)
(declare-fun small (Int) Int)
(declare-fun f2 (Int Int) Int)
(declare-fun g2 (Int) Int)
(declare-fun h2 () Int)
(declare-fun u2 (Int Int) Int)
(declare-fun v2 (Int) Int)
(declare-fun f1 (Int) Int)
(declare-fun g1 () Int)
(declare-fun h1 (Int) Int)
(declare-fun u1 (Int Int) Int)
(declare-fun v1 (Int) Int)
(declare-fun fast (Int) Int)
(assert (forall ((x Int) (y Int)) (= (f0 x y) (+ (divf (* (+ 2 y) y) (+ 2 x)) y))))
(assert (forall ((x Int)) (= (g0 x) (+ 1 (* x x)))))
(assert (= h0 0))
(assert (forall ((x Int) (y Int)) (= (u0 x y) (ite (<= x 0) y (f0 (u0 (- x 1) y) x)))))
(assert (forall ((x Int)) (= (v0 x) (u0 (g0 x) h0))))
(assert (forall ((x Int)) (= (small x) (- (v0 x) 2))))
(assert (forall ((x Int) (y Int)) (= (f2 x y) (divf (- (* y y) 1) (+ x y)))))
(assert (forall ((x Int)) (= (g2 x) (+ 2 x))))
(assert (= h2 0))
(assert (forall ((x Int) (y Int)) (= (u2 x y) (ite (<= x 0) y (f2 (u2 (- x 1) y) x)))))
(assert (forall ((x Int)) (= (v2 x) (u2 (g2 x) h2))))
(assert (forall ((x Int)) (= (f1 x) (+ (- (v2 x) 1) x))))
(assert (= g1 1))
(assert (forall ((x Int)) (= (h1 x) (* x x))))
(assert (forall ((x Int) (y Int)) (= (u1 x y) (ite (<= x 0) y (f1 (u1 (- x 1) y))))))
(assert (forall ((x Int)) (= (v1 x) (u1 g1 (h1 x)))))
(assert (forall ((x Int)) (= (fast x) (v1 x))))
(assert (exists ((c Int)) (and (>= c 0) (not (= (small c) (fast c))))))
(check-sat)
